1
100
88
1 1
2 2
4 3
5 1
6 3
7 3
8 4
9 2
10 1
11 4
12 2
13 2
14 5
15 1
16 2
17 2
18 1
19 2
20 4
21 3
22 2
23 4
24 2
25 2
26 4
27 2
28 2
29 2
30 2
31 1
32 1
33 3
34 4
36 2
37 2
39 1
40 3
41 2
42 3
43 2
46 2
47 4
48 2
49 1
50 2
51 2
52 1
54 1
55 2
56 4
57 2
58 2
59 4
60 2
61 2
62 3
63 3
64 3
65 2
66 2
67 4
68 1
70 1
71 2
72 3
73 1
74 2
75 2
76 1
79 3
80 3
81 2
82 3
83 1
85 3
86 2
87 1
88 2
89 2
90 3
91 4
92 2
94 1
95 2
96 2
97 1
99 3
100 3
